VRPTWMS/instances/mip/freight/5/N5-C_DV10-C_SV50_F12_3_No_1.lp
\ N5-C_DV10-C_SV50_F12_3

Minimize
  13.89 x_d0_c1 + 13.89 z_d0_c1 + 26.25 x_d0_c2 + 26.25 z_d0_c2 + 35.44 x_d0_c3 + 35.44 z_d0_c3 + 20.0 x_d0_c4 + 20.0 z_d0_c4 + 25.0 x_d0_c5 + 25.0 z_d0_c5 + 13.04 x_c1_c2 + 13.04 x_c2_c1 + 13.04 z_c1_c2 + 13.04 z_c2_c1 + 41.05 x_c1_c3 + 41.05 x_c3_c1 + 41.05 z_c1_c3 + 41.05 z_c3_c1 + 33.84 x_c1_c4 + 33.84 x_c4_c1 + 33.84 z_c1_c4 + 33.84 z_c4_c1 + 38.83 x_c1_c5 + 38.83 x_c5_c1 + 38.83 z_c1_c5 + 38.83 z_c5_c1 + 44.6 x_c2_c3 + 44.6 x_c3_c2 + 44.6 z_c2_c3 + 44.6 z_c3_c2 + 45.62 x_c2_c4 + 45.62 x_c4_c2 + 45.62 z_c2_c4 + 45.62 z_c4_c2 + 50.54 x_c2_c5 + 50.54 x_c5_c2 + 50.54 z_c2_c5 + 50.54 z_c5_c2 + 34.06 x_c3_c4 + 34.06 x_c4_c3 + 34.06 z_c3_c4 + 34.06 z_c4_c3 + 35.51 x_c3_c5 + 35.51 x_c5_c3 + 35.51 z_c3_c5 + 35.51 z_c5_c3 + 5.0 x_c4_c5 + 5.0 x_c5_c4 + 5.0 z_c4_c5 + 5.0 z_c5_c4 + 13.89 x_c1_dN + 13.89 z_c1_dN + 26.25 x_c2_dN + 26.25 z_c2_dN + 35.44 x_c3_dN + 35.44 z_c3_dN + 20.0 x_c4_dN + 20.0 z_c4_dN + 25.0 x_c5_dN + 25.0 z_c5_dN + 1000.0 x_d0_c1 + 1000.0 z_d0_c1 + 1000.0 x_d0_c2 + 1000.0 z_d0_c2 + 1000.0 x_d0_c3 + 1000.0 z_d0_c3 + 1000.0 x_d0_c4 + 1000.0 z_d0_c4 + 1000.0 x_d0_c5 + 1000.0 z_d0_c5
Subject To
  Successor_DV_c1: x_c1_c2 + x_c1_c3 + x_c1_c4 + x_c1_c5 + x_c1_dN = 1
  Successor_DV_c2: x_c2_c1 + x_c2_c3 + x_c2_c4 + x_c2_c5 + x_c2_dN = 1
  Successor_DV_c3: x_c3_c1 + x_c3_c2 + x_c3_c4 + x_c3_c5 + x_c3_dN = 1
  Successor_DV_c4: x_c4_c1 + x_c4_c2 + x_c4_c3 + x_c4_c5 + x_c4_dN = 1
  Successor_DV_c5: x_c5_c1 + x_c5_c2 + x_c5_c3 + x_c5_c4 + x_c5_dN = 1
  Successor_SV_c1: z_c1_c2 + z_c1_c3 + z_c1_c4 + z_c1_c5 + z_c1_dN <= 1
  Successor_SV_c2: z_c2_c1 + z_c2_c3 + z_c2_c4 + z_c2_c5 + z_c2_dN <= 1
  Successor_SV_c3: z_c3_c1 + z_c3_c2 + z_c3_c4 + z_c3_c5 + z_c3_dN <= 1
  Successor_SV_c4: z_c4_c1 + z_c4_c2 + z_c4_c3 + z_c4_c5 + z_c4_dN <= 1
  Successor_SV_c5: z_c5_c1 + z_c5_c2 + z_c5_c3 + z_c5_c4 + z_c5_dN <= 1
  Flow_DV_c1: x_d0_c1 + x_c2_c1 + x_c3_c1 + x_c4_c1 + x_c5_c1 - x_c1_dN - x_c1_c2 - x_c1_c3 - x_c1_c4 - x_c1_c5 = 0
  Flow_DV_c2: x_d0_c2 + x_c1_c2 + x_c3_c2 + x_c4_c2 + x_c5_c2 - x_c2_dN - x_c2_c1 - x_c2_c3 - x_c2_c4 - x_c2_c5 = 0
  Flow_DV_c3: x_d0_c3 + x_c1_c3 + x_c2_c3 + x_c4_c3 + x_c5_c3 - x_c3_dN - x_c3_c1 - x_c3_c2 - x_c3_c4 - x_c3_c5 = 0
  Flow_DV_c4: x_d0_c4 + x_c1_c4 + x_c2_c4 + x_c3_c4 + x_c5_c4 - x_c4_dN - x_c4_c1 - x_c4_c2 - x_c4_c3 - x_c4_c5 = 0
  Flow_DV_c5: x_d0_c5 + x_c1_c5 + x_c2_c5 + x_c3_c5 + x_c4_c5 - x_c5_dN - x_c5_c1 - x_c5_c2 - x_c5_c3 - x_c5_c4 = 0
  Flow_SV_c1: z_d0_c1 + z_c2_c1 + z_c3_c1 + z_c4_c1 + z_c5_c1 - z_c1_dN - z_c1_c2 - z_c1_c3 - z_c1_c4 - z_c1_c5 = 0
  Flow_SV_c2: z_d0_c2 + z_c1_c2 + z_c3_c2 + z_c4_c2 + z_c5_c2 - z_c2_dN - z_c2_c1 - z_c2_c3 - z_c2_c4 - z_c2_c5 = 0
  Flow_SV_c3: z_d0_c3 + z_c1_c3 + z_c2_c3 + z_c4_c3 + z_c5_c3 - z_c3_dN - z_c3_c1 - z_c3_c2 - z_c3_c4 - z_c3_c5 = 0
  Flow_SV_c4: z_d0_c4 + z_c1_c4 + z_c2_c4 + z_c3_c4 + z_c5_c4 - z_c4_dN - z_c4_c1 - z_c4_c2 - z_c4_c3 - z_c4_c5 = 0
  Flow_SV_c5: z_d0_c5 + z_c1_c5 + z_c2_c5 + z_c3_c5 + z_c4_c5 - z_c5_dN - z_c5_c1 - z_c5_c2 - z_c5_c3 - z_c5_c4 = 0
  travelDV_d0_c1: tauD_d0 - tauD_c1 + 103.4725 x_d0_c1 <= 100.0
  travelDV_d0_c2: tauD_d0 - tauD_c2 + 106.5625 x_d0_c2 <= 100.0
  travelDV_d0_c3: tauD_d0 - tauD_c3 + 108.86 x_d0_c3 <= 100.0
  travelDV_d0_c4: tauD_d0 - tauD_c4 + 105.0 x_d0_c4 <= 100.0
  travelDV_d0_c5: tauD_d0 - tauD_c5 + 106.25 x_d0_c5 <= 100.0
  travelDV_c1_c2: tauD_c1 - tauD_c2 + 110.26 x_c1_c2 + 8.0 p_1 <= 100.0
  travelDV_c1_c3: tauD_c1 - tauD_c3 + 117.2625 x_c1_c3 + 8.0 p_1 <= 100.0
  travelDV_c1_c4: tauD_c1 - tauD_c4 + 115.46 x_c1_c4 + 8.0 p_1 <= 100.0
  travelDV_c1_c5: tauD_c1 - tauD_c5 + 116.7075 x_c1_c5 + 8.0 p_1 <= 100.0
  travelDV_c2_c1: tauD_c2 - tauD_c1 + 109.26 x_c2_c1 + 8.0 p_2 <= 100.0
  travelDV_c2_c3: tauD_c2 - tauD_c3 + 117.15 x_c2_c3 + 8.0 p_2 <= 100.0
  travelDV_c2_c4: tauD_c2 - tauD_c4 + 117.405 x_c2_c4 + 8.0 p_2 <= 100.0
  travelDV_c2_c5: tauD_c2 - tauD_c5 + 118.635 x_c2_c5 + 8.0 p_2 <= 100.0
  travelDV_c3_c1: tauD_c3 - tauD_c1 + 119.2625 x_c3_c1 + 8.0 p_3 <= 100.0
  travelDV_c3_c2: tauD_c3 - tauD_c2 + 120.15 x_c3_c2 + 8.0 p_3 <= 100.0
  travelDV_c3_c4: tauD_c3 - tauD_c4 + 117.515 x_c3_c4 + 8.0 p_3 <= 100.0
  travelDV_c3_c5: tauD_c3 - tauD_c5 + 117.8775 x_c3_c5 + 8.0 p_3 <= 100.0
  travelDV_c4_c1: tauD_c4 - tauD_c1 + 120.46 x_c4_c1 + 8.0 p_4 <= 100.0
  travelDV_c4_c2: tauD_c4 - tauD_c2 + 123.405 x_c4_c2 + 8.0 p_4 <= 100.0
  travelDV_c4_c3: tauD_c4 - tauD_c3 + 120.515 x_c4_c3 + 8.0 p_4 <= 100.0
  travelDV_c4_c5: tauD_c4 - tauD_c5 + 113.25 x_c4_c5 + 8.0 p_4 <= 100.0
  travelDV_c5_c1: tauD_c5 - tauD_c1 + 112.7075 x_c5_c1 + 8.0 p_5 <= 100.0
  travelDV_c5_c2: tauD_c5 - tauD_c2 + 115.635 x_c5_c2 + 8.0 p_5 <= 100.0
  travelDV_c5_c3: tauD_c5 - tauD_c3 + 111.8775 x_c5_c3 + 8.0 p_5 <= 100.0
  travelDV_c5_c4: tauD_c5 - tauD_c4 + 104.25 x_c5_c4 + 8.0 p_5 <= 100.0
  TravelSV_d0_c1: tauS_d0 - tauS_c1 + 100.0 z_d0_c1 <= 96.5275
  TravelSV_d0_c2: tauS_d0 - tauS_c2 + 100.0 z_d0_c2 <= 93.4375
  TravelSV_d0_c3: tauS_d0 - tauS_c3 + 100.0 z_d0_c3 <= 91.14
  TravelSV_d0_c4: tauS_d0 - tauS_c4 + 100.0 z_d0_c4 <= 95.0
  TravelSV_d0_c5: tauS_d0 - tauS_c5 + 100.0 z_d0_c5 <= 93.75
  TravelSV_d0_dN: tauS_d0 - tauS_dN + 100.0 z_d0_dN <= 100.0
  TravelSV_c1_c2: tauS_c1 - tauS_c2 + 100.0 z_c1_c2 <= 88.74
  TravelSV_c1_c3: tauS_c1 - tauS_c3 + 100.0 z_c1_c3 <= 81.7375
  TravelSV_c1_c4: tauS_c1 - tauS_c4 + 100.0 z_c1_c4 <= 83.53999999999999
  TravelSV_c1_c5: tauS_c1 - tauS_c5 + 100.0 z_c1_c5 <= 82.2925
  TravelSV_c1_dN: tauS_c1 - tauS_dN + 100.0 z_c1_dN <= 88.5275
  TravelSV_c2_c1: tauS_c2 - tauS_c1 + 100.0 z_c2_c1 <= 88.74
  TravelSV_c2_c3: tauS_c2 - tauS_c3 + 100.0 z_c2_c3 <= 80.85
  TravelSV_c2_c4: tauS_c2 - tauS_c4 + 100.0 z_c2_c4 <= 80.595
  TravelSV_c2_c5: tauS_c2 - tauS_c5 + 100.0 z_c2_c5 <= 79.365
  TravelSV_c2_dN: tauS_c2 - tauS_dN + 100.0 z_c2_dN <= 85.4375
  TravelSV_c3_c1: tauS_c3 - tauS_c1 + 100.0 z_c3_c1 <= 81.7375
  TravelSV_c3_c2: tauS_c3 - tauS_c2 + 100.0 z_c3_c2 <= 80.85
  TravelSV_c3_c4: tauS_c3 - tauS_c4 + 100.0 z_c3_c4 <= 83.485
  TravelSV_c3_c5: tauS_c3 - tauS_c5 + 100.0 z_c3_c5 <= 83.1225
  TravelSV_c3_dN: tauS_c3 - tauS_dN + 100.0 z_c3_dN <= 83.14
  TravelSV_c4_c1: tauS_c4 - tauS_c1 + 100.0 z_c4_c1 <= 83.53999999999999
  TravelSV_c4_c2: tauS_c4 - tauS_c2 + 100.0 z_c4_c2 <= 80.595
  TravelSV_c4_c3: tauS_c4 - tauS_c3 + 100.0 z_c4_c3 <= 83.485
  TravelSV_c4_c5: tauS_c4 - tauS_c5 + 100.0 z_c4_c5 <= 90.75
  TravelSV_c4_dN: tauS_c4 - tauS_dN + 100.0 z_c4_dN <= 87.0
  TravelSV_c5_c1: tauS_c5 - tauS_c1 + 100.0 z_c5_c1 <= 82.2925
  TravelSV_c5_c2: tauS_c5 - tauS_c2 + 100.0 z_c5_c2 <= 79.365
  TravelSV_c5_c3: tauS_c5 - tauS_c3 + 100.0 z_c5_c3 <= 83.1225
  TravelSV_c5_c4: tauS_c5 - tauS_c4 + 100.0 z_c5_c4 <= 90.75
  TravelSV_c5_dN: tauS_c5 - tauS_dN + 100.0 z_c5_dN <= 85.75
  time_window_c1_e: tauD_c1 + 8.0 o_1 >= 50.0
  time_window_c1_l: tauD_c1 + 8.0 o_1 <= 65.0
  time_window_c2_e: tauD_c2 + 8.0 o_2 >= 0.0
  time_window_c2_l: tauD_c2 + 8.0 o_2 <= 100.0
  time_window_c3_e: tauD_c3 + 8.0 o_3 >= 70.0
  time_window_c3_l: tauD_c3 + 8.0 o_3 <= 85.0
  time_window_c4_e: tauD_c4 + 8.0 o_4 >= 30.0
  time_window_c4_l: tauD_c4 + 8.0 o_4 <= 45.0
  time_window_c5_e: tauD_c5 + 8.0 o_5 >= 5.0
  time_window_c5_l: tauD_c5 + 8.0 o_5 <= 20.0
  SyncA_c1_c2_c2: 7.0 o_1 + 100.0 x_c1_c2 - tauD_c2 - 3.26 z_c1_c2 + [ tauS_c2 * z_c1_c2 ] <= 96.74
  SyncA_c1_c2_c3: 7.0 o_1 + 100.0 x_c1_c2 - tauD_c2 - 10.2625 z_c1_c3 + [ tauS_c3 * z_c1_c3 ] <= 96.74
  SyncA_c1_c2_c4: 7.0 o_1 + 100.0 x_c1_c2 - tauD_c2 - 8.46 z_c1_c4 + [ tauS_c4 * z_c1_c4 ] <= 96.74
  SyncA_c1_c2_c5: 7.0 o_1 + 100.0 x_c1_c2 - tauD_c2 - 9.7075 z_c1_c5 + [ tauS_c5 * z_c1_c5 ] <= 96.74
  SyncA_c1_c2_dN: 7.0 o_1 + 100.0 x_c1_c2 - tauD_c2 - 3.4725 z_c1_dN + [ tauS_dN * z_c1_dN ] <= 96.74
  SyncA_c1_c3_c2: 7.0 o_1 + 100.0 x_c1_c3 - tauD_c3 - 3.26 z_c1_c2 + [ tauS_c2 * z_c1_c2 ] <= 89.7375
  SyncA_c1_c3_c3: 7.0 o_1 + 100.0 x_c1_c3 - tauD_c3 - 10.2625 z_c1_c3 + [ tauS_c3 * z_c1_c3 ] <= 89.7375
  SyncA_c1_c3_c4: 7.0 o_1 + 100.0 x_c1_c3 - tauD_c3 - 8.46 z_c1_c4 + [ tauS_c4 * z_c1_c4 ] <= 89.7375
  SyncA_c1_c3_c5: 7.0 o_1 + 100.0 x_c1_c3 - tauD_c3 - 9.7075 z_c1_c5 + [ tauS_c5 * z_c1_c5 ] <= 89.7375
  SyncA_c1_c3_dN: 7.0 o_1 + 100.0 x_c1_c3 - tauD_c3 - 3.4725 z_c1_dN + [ tauS_dN * z_c1_dN ] <= 89.7375
  SyncA_c1_c4_c2: 7.0 o_1 + 100.0 x_c1_c4 - tauD_c4 - 3.26 z_c1_c2 + [ tauS_c2 * z_c1_c2 ] <= 91.53999999999999
  SyncA_c1_c4_c3: 7.0 o_1 + 100.0 x_c1_c4 - tauD_c4 - 10.2625 z_c1_c3 + [ tauS_c3 * z_c1_c3 ] <= 91.53999999999999
  SyncA_c1_c4_c4: 7.0 o_1 + 100.0 x_c1_c4 - tauD_c4 - 8.46 z_c1_c4 + [ tauS_c4 * z_c1_c4 ] <= 91.53999999999999
  SyncA_c1_c4_c5: 7.0 o_1 + 100.0 x_c1_c4 - tauD_c4 - 9.7075 z_c1_c5 + [ tauS_c5 * z_c1_c5 ] <= 91.53999999999999
  SyncA_c1_c4_dN: 7.0 o_1 + 100.0 x_c1_c4 - tauD_c4 - 3.4725 z_c1_dN + [ tauS_dN * z_c1_dN ] <= 91.53999999999999
  SyncA_c1_c5_c2: 7.0 o_1 + 100.0 x_c1_c5 - tauD_c5 - 3.26 z_c1_c2 + [ tauS_c2 * z_c1_c2 ] <= 90.2925
  SyncA_c1_c5_c3: 7.0 o_1 + 100.0 x_c1_c5 - tauD_c5 - 10.2625 z_c1_c3 + [ tauS_c3 * z_c1_c3 ] <= 90.2925
  SyncA_c1_c5_c4: 7.0 o_1 + 100.0 x_c1_c5 - tauD_c5 - 8.46 z_c1_c4 + [ tauS_c4 * z_c1_c4 ] <= 90.2925
  SyncA_c1_c5_c5: 7.0 o_1 + 100.0 x_c1_c5 - tauD_c5 - 9.7075 z_c1_c5 + [ tauS_c5 * z_c1_c5 ] <= 90.2925
  SyncA_c1_c5_dN: 7.0 o_1 + 100.0 x_c1_c5 - tauD_c5 - 3.4725 z_c1_dN + [ tauS_dN * z_c1_dN ] <= 90.2925
  SyncA_c1_dN_c2: 7.0 o_1 + 100.0 x_c1_dN - tauD_dN - 3.26 z_c1_c2 + [ tauS_c2 * z_c1_c2 ] <= 96.5275
  SyncA_c1_dN_c3: 7.0 o_1 + 100.0 x_c1_dN - tauD_dN - 10.2625 z_c1_c3 + [ tauS_c3 * z_c1_c3 ] <= 96.5275
  SyncA_c1_dN_c4: 7.0 o_1 + 100.0 x_c1_dN - tauD_dN - 8.46 z_c1_c4 + [ tauS_c4 * z_c1_c4 ] <= 96.5275
  SyncA_c1_dN_c5: 7.0 o_1 + 100.0 x_c1_dN - tauD_dN - 9.7075 z_c1_c5 + [ tauS_c5 * z_c1_c5 ] <= 96.5275
  SyncA_c1_dN_dN: 7.0 o_1 + 100.0 x_c1_dN - tauD_dN - 3.4725 z_c1_dN + [ tauS_dN * z_c1_dN ] <= 96.5275
  SyncA_c2_c1_c1: 6.0 o_2 + 100.0 x_c2_c1 - tauD_c1 - 3.26 z_c2_c1 + [ tauS_c1 * z_c2_c1 ] <= 96.74
  SyncA_c2_c1_c3: 6.0 o_2 + 100.0 x_c2_c1 - tauD_c1 - 11.15 z_c2_c3 + [ tauS_c3 * z_c2_c3 ] <= 96.74
  SyncA_c2_c1_c4: 6.0 o_2 + 100.0 x_c2_c1 - tauD_c1 - 11.405 z_c2_c4 + [ tauS_c4 * z_c2_c4 ] <= 96.74
  SyncA_c2_c1_c5: 6.0 o_2 + 100.0 x_c2_c1 - tauD_c1 - 12.635 z_c2_c5 + [ tauS_c5 * z_c2_c5 ] <= 96.74
  SyncA_c2_c1_dN: 6.0 o_2 + 100.0 x_c2_c1 - tauD_c1 - 6.5625 z_c2_dN + [ tauS_dN * z_c2_dN ] <= 96.74
  SyncA_c2_c3_c1: 6.0 o_2 + 100.0 x_c2_c3 - tauD_c3 - 3.26 z_c2_c1 + [ tauS_c1 * z_c2_c1 ] <= 88.85
  SyncA_c2_c3_c3: 6.0 o_2 + 100.0 x_c2_c3 - tauD_c3 - 11.15 z_c2_c3 + [ tauS_c3 * z_c2_c3 ] <= 88.85
  SyncA_c2_c3_c4: 6.0 o_2 + 100.0 x_c2_c3 - tauD_c3 - 11.405 z_c2_c4 + [ tauS_c4 * z_c2_c4 ] <= 88.85
  SyncA_c2_c3_c5: 6.0 o_2 + 100.0 x_c2_c3 - tauD_c3 - 12.635 z_c2_c5 + [ tauS_c5 * z_c2_c5 ] <= 88.85
  SyncA_c2_c3_dN: 6.0 o_2 + 100.0 x_c2_c3 - tauD_c3 - 6.5625 z_c2_dN + [ tauS_dN * z_c2_dN ] <= 88.85
  SyncA_c2_c4_c1: 6.0 o_2 + 100.0 x_c2_c4 - tauD_c4 - 3.26 z_c2_c1 + [ tauS_c1 * z_c2_c1 ] <= 88.595
  SyncA_c2_c4_c3: 6.0 o_2 + 100.0 x_c2_c4 - tauD_c4 - 11.15 z_c2_c3 + [ tauS_c3 * z_c2_c3 ] <= 88.595
  SyncA_c2_c4_c4: 6.0 o_2 + 100.0 x_c2_c4 - tauD_c4 - 11.405 z_c2_c4 + [ tauS_c4 * z_c2_c4 ] <= 88.595
  SyncA_c2_c4_c5: 6.0 o_2 + 100.0 x_c2_c4 - tauD_c4 - 12.635 z_c2_c5 + [ tauS_c5 * z_c2_c5 ] <= 88.595
  SyncA_c2_c4_dN: 6.0 o_2 + 100.0 x_c2_c4 - tauD_c4 - 6.5625 z_c2_dN + [ tauS_dN * z_c2_dN ] <= 88.595
  SyncA_c2_c5_c1: 6.0 o_2 + 100.0 x_c2_c5 - tauD_c5 - 3.26 z_c2_c1 + [ tauS_c1 * z_c2_c1 ] <= 87.365
  SyncA_c2_c5_c3: 6.0 o_2 + 100.0 x_c2_c5 - tauD_c5 - 11.15 z_c2_c3 + [ tauS_c3 * z_c2_c3 ] <= 87.365
  SyncA_c2_c5_c4: 6.0 o_2 + 100.0 x_c2_c5 - tauD_c5 - 11.405 z_c2_c4 + [ tauS_c4 * z_c2_c4 ] <= 87.365
  SyncA_c2_c5_c5: 6.0 o_2 + 100.0 x_c2_c5 - tauD_c5 - 12.635 z_c2_c5 + [ tauS_c5 * z_c2_c5 ] <= 87.365
  SyncA_c2_c5_dN: 6.0 o_2 + 100.0 x_c2_c5 - tauD_c5 - 6.5625 z_c2_dN + [ tauS_dN * z_c2_dN ] <= 87.365
  SyncA_c2_dN_c1: 6.0 o_2 + 100.0 x_c2_dN - tauD_dN - 3.26 z_c2_c1 + [ tauS_c1 * z_c2_c1 ] <= 93.4375
  SyncA_c2_dN_c3: 6.0 o_2 + 100.0 x_c2_dN - tauD_dN - 11.15 z_c2_c3 + [ tauS_c3 * z_c2_c3 ] <= 93.4375
  SyncA_c2_dN_c4: 6.0 o_2 + 100.0 x_c2_dN - tauD_dN - 11.405 z_c2_c4 + [ tauS_c4 * z_c2_c4 ] <= 93.4375
  SyncA_c2_dN_c5: 6.0 o_2 + 100.0 x_c2_dN - tauD_dN - 12.635 z_c2_c5 + [ tauS_c5 * z_c2_c5 ] <= 93.4375
  SyncA_c2_dN_dN: 6.0 o_2 + 100.0 x_c2_dN - tauD_dN - 6.5625 z_c2_dN + [ tauS_dN * z_c2_dN ] <= 93.4375
  SyncA_c3_c1_c1: 9.0 o_3 + 100.0 x_c3_c1 - tauD_c1 - 10.2625 z_c3_c1 + [ tauS_c1 * z_c3_c1 ] <= 89.7375
  SyncA_c3_c1_c2: 9.0 o_3 + 100.0 x_c3_c1 - tauD_c1 - 11.15 z_c3_c2 + [ tauS_c2 * z_c3_c2 ] <= 89.7375
  SyncA_c3_c1_c4: 9.0 o_3 + 100.0 x_c3_c1 - tauD_c1 - 8.515 z_c3_c4 + [ tauS_c4 * z_c3_c4 ] <= 89.7375
  SyncA_c3_c1_c5: 9.0 o_3 + 100.0 x_c3_c1 - tauD_c1 - 8.8775 z_c3_c5 + [ tauS_c5 * z_c3_c5 ] <= 89.7375
  SyncA_c3_c1_dN: 9.0 o_3 + 100.0 x_c3_c1 - tauD_c1 - 8.86 z_c3_dN + [ tauS_dN * z_c3_dN ] <= 89.7375
  SyncA_c3_c2_c1: 9.0 o_3 + 100.0 x_c3_c2 - tauD_c2 - 10.2625 z_c3_c1 + [ tauS_c1 * z_c3_c1 ] <= 88.85
  SyncA_c3_c2_c2: 9.0 o_3 + 100.0 x_c3_c2 - tauD_c2 - 11.15 z_c3_c2 + [ tauS_c2 * z_c3_c2 ] <= 88.85
  SyncA_c3_c2_c4: 9.0 o_3 + 100.0 x_c3_c2 - tauD_c2 - 8.515 z_c3_c4 + [ tauS_c4 * z_c3_c4 ] <= 88.85
  SyncA_c3_c2_c5: 9.0 o_3 + 100.0 x_c3_c2 - tauD_c2 - 8.8775 z_c3_c5 + [ tauS_c5 * z_c3_c5 ] <= 88.85
  SyncA_c3_c2_dN: 9.0 o_3 + 100.0 x_c3_c2 - tauD_c2 - 8.86 z_c3_dN + [ tauS_dN * z_c3_dN ] <= 88.85
  SyncA_c3_c4_c1: 9.0 o_3 + 100.0 x_c3_c4 - tauD_c4 - 10.2625 z_c3_c1 + [ tauS_c1 * z_c3_c1 ] <= 91.485
  SyncA_c3_c4_c2: 9.0 o_3 + 100.0 x_c3_c4 - tauD_c4 - 11.15 z_c3_c2 + [ tauS_c2 * z_c3_c2 ] <= 91.485
  SyncA_c3_c4_c4: 9.0 o_3 + 100.0 x_c3_c4 - tauD_c4 - 8.515 z_c3_c4 + [ tauS_c4 * z_c3_c4 ] <= 91.485
  SyncA_c3_c4_c5: 9.0 o_3 + 100.0 x_c3_c4 - tauD_c4 - 8.8775 z_c3_c5 + [ tauS_c5 * z_c3_c5 ] <= 91.485
  SyncA_c3_c4_dN: 9.0 o_3 + 100.0 x_c3_c4 - tauD_c4 - 8.86 z_c3_dN + [ tauS_dN * z_c3_dN ] <= 91.485
  SyncA_c3_c5_c1: 9.0 o_3 + 100.0 x_c3_c5 - tauD_c5 - 10.2625 z_c3_c1 + [ tauS_c1 * z_c3_c1 ] <= 91.1225
  SyncA_c3_c5_c2: 9.0 o_3 + 100.0 x_c3_c5 - tauD_c5 - 11.15 z_c3_c2 + [ tauS_c2 * z_c3_c2 ] <= 91.1225
  SyncA_c3_c5_c4: 9.0 o_3 + 100.0 x_c3_c5 - tauD_c5 - 8.515 z_c3_c4 + [ tauS_c4 * z_c3_c4 ] <= 91.1225
  SyncA_c3_c5_c5: 9.0 o_3 + 100.0 x_c3_c5 - tauD_c5 - 8.8775 z_c3_c5 + [ tauS_c5 * z_c3_c5 ] <= 91.1225
  SyncA_c3_c5_dN: 9.0 o_3 + 100.0 x_c3_c5 - tauD_c5 - 8.86 z_c3_dN + [ tauS_dN * z_c3_dN ] <= 91.1225
  SyncA_c3_dN_c1: 9.0 o_3 + 100.0 x_c3_dN - tauD_dN - 10.2625 z_c3_c1 + [ tauS_c1 * z_c3_c1 ] <= 91.14
  SyncA_c3_dN_c2: 9.0 o_3 + 100.0 x_c3_dN - tauD_dN - 11.15 z_c3_c2 + [ tauS_c2 * z_c3_c2 ] <= 91.14
  SyncA_c3_dN_c4: 9.0 o_3 + 100.0 x_c3_dN - tauD_dN - 8.515 z_c3_c4 + [ tauS_c4 * z_c3_c4 ] <= 91.14
  SyncA_c3_dN_c5: 9.0 o_3 + 100.0 x_c3_dN - tauD_dN - 8.8775 z_c3_c5 + [ tauS_c5 * z_c3_c5 ] <= 91.14
  SyncA_c3_dN_dN: 9.0 o_3 + 100.0 x_c3_dN - tauD_dN - 8.86 z_c3_dN + [ tauS_dN * z_c3_dN ] <= 91.14
  SyncA_c4_c1_c1: 12.0 o_4 + 100.0 x_c4_c1 - tauD_c1 - 8.46 z_c4_c1 + [ tauS_c1 * z_c4_c1 ] <= 91.53999999999999
  SyncA_c4_c1_c2: 12.0 o_4 + 100.0 x_c4_c1 - tauD_c1 - 11.405 z_c4_c2 + [ tauS_c2 * z_c4_c2 ] <= 91.53999999999999
  SyncA_c4_c1_c3: 12.0 o_4 + 100.0 x_c4_c1 - tauD_c1 - 8.515 z_c4_c3 + [ tauS_c3 * z_c4_c3 ] <= 91.53999999999999
  SyncA_c4_c1_c5: 12.0 o_4 + 100.0 x_c4_c1 - tauD_c1 - 1.25 z_c4_c5 + [ tauS_c5 * z_c4_c5 ] <= 91.53999999999999
  SyncA_c4_c1_dN: 12.0 o_4 + 100.0 x_c4_c1 - tauD_c1 - 5.0 z_c4_dN + [ tauS_dN * z_c4_dN ] <= 91.53999999999999
  SyncA_c4_c2_c1: 12.0 o_4 + 100.0 x_c4_c2 - tauD_c2 - 8.46 z_c4_c1 + [ tauS_c1 * z_c4_c1 ] <= 88.595
  SyncA_c4_c2_c2: 12.0 o_4 + 100.0 x_c4_c2 - tauD_c2 - 11.405 z_c4_c2 + [ tauS_c2 * z_c4_c2 ] <= 88.595
  SyncA_c4_c2_c3: 12.0 o_4 + 100.0 x_c4_c2 - tauD_c2 - 8.515 z_c4_c3 + [ tauS_c3 * z_c4_c3 ] <= 88.595
  SyncA_c4_c2_c5: 12.0 o_4 + 100.0 x_c4_c2 - tauD_c2 - 1.25 z_c4_c5 + [ tauS_c5 * z_c4_c5 ] <= 88.595
  SyncA_c4_c2_dN: 12.0 o_4 + 100.0 x_c4_c2 - tauD_c2 - 5.0 z_c4_dN + [ tauS_dN * z_c4_dN ] <= 88.595
  SyncA_c4_c3_c1: 12.0 o_4 + 100.0 x_c4_c3 - tauD_c3 - 8.46 z_c4_c1 + [ tauS_c1 * z_c4_c1 ] <= 91.485
  SyncA_c4_c3_c2: 12.0 o_4 + 100.0 x_c4_c3 - tauD_c3 - 11.405 z_c4_c2 + [ tauS_c2 * z_c4_c2 ] <= 91.485
  SyncA_c4_c3_c3: 12.0 o_4 + 100.0 x_c4_c3 - tauD_c3 - 8.515 z_c4_c3 + [ tauS_c3 * z_c4_c3 ] <= 91.485
  SyncA_c4_c3_c5: 12.0 o_4 + 100.0 x_c4_c3 - tauD_c3 - 1.25 z_c4_c5 + [ tauS_c5 * z_c4_c5 ] <= 91.485
  SyncA_c4_c3_dN: 12.0 o_4 + 100.0 x_c4_c3 - tauD_c3 - 5.0 z_c4_dN + [ tauS_dN * z_c4_dN ] <= 91.485
  SyncA_c4_c5_c1: 12.0 o_4 + 100.0 x_c4_c5 - tauD_c5 - 8.46 z_c4_c1 + [ tauS_c1 * z_c4_c1 ] <= 98.75
  SyncA_c4_c5_c2: 12.0 o_4 + 100.0 x_c4_c5 - tauD_c5 - 11.405 z_c4_c2 + [ tauS_c2 * z_c4_c2 ] <= 98.75
  SyncA_c4_c5_c3: 12.0 o_4 + 100.0 x_c4_c5 - tauD_c5 - 8.515 z_c4_c3 + [ tauS_c3 * z_c4_c3 ] <= 98.75
  SyncA_c4_c5_c5: 12.0 o_4 + 100.0 x_c4_c5 - tauD_c5 - 1.25 z_c4_c5 + [ tauS_c5 * z_c4_c5 ] <= 98.75
  SyncA_c4_c5_dN: 12.0 o_4 + 100.0 x_c4_c5 - tauD_c5 - 5.0 z_c4_dN + [ tauS_dN * z_c4_dN ] <= 98.75
  SyncA_c4_dN_c1: 12.0 o_4 + 100.0 x_c4_dN - tauD_dN - 8.46 z_c4_c1 + [ tauS_c1 * z_c4_c1 ] <= 95.0
  SyncA_c4_dN_c2: 12.0 o_4 + 100.0 x_c4_dN - tauD_dN - 11.405 z_c4_c2 + [ tauS_c2 * z_c4_c2 ] <= 95.0
  SyncA_c4_dN_c3: 12.0 o_4 + 100.0 x_c4_dN - tauD_dN - 8.515 z_c4_c3 + [ tauS_c3 * z_c4_c3 ] <= 95.0
  SyncA_c4_dN_c5: 12.0 o_4 + 100.0 x_c4_dN - tauD_dN - 1.25 z_c4_c5 + [ tauS_c5 * z_c4_c5 ] <= 95.0
  SyncA_c4_dN_dN: 12.0 o_4 + 100.0 x_c4_dN - tauD_dN - 5.0 z_c4_dN + [ tauS_dN * z_c4_dN ] <= 95.0
  SyncA_c5_c1_c1: 3.0 o_5 + 100.0 x_c5_c1 - tauD_c1 - 9.7075 z_c5_c1 + [ tauS_c1 * z_c5_c1 ] <= 90.2925
  SyncA_c5_c1_c2: 3.0 o_5 + 100.0 x_c5_c1 - tauD_c1 - 12.635 z_c5_c2 + [ tauS_c2 * z_c5_c2 ] <= 90.2925
  SyncA_c5_c1_c3: 3.0 o_5 + 100.0 x_c5_c1 - tauD_c1 - 8.8775 z_c5_c3 + [ tauS_c3 * z_c5_c3 ] <= 90.2925
  SyncA_c5_c1_c4: 3.0 o_5 + 100.0 x_c5_c1 - tauD_c1 - 1.25 z_c5_c4 + [ tauS_c4 * z_c5_c4 ] <= 90.2925
  SyncA_c5_c1_dN: 3.0 o_5 + 100.0 x_c5_c1 - tauD_c1 - 6.25 z_c5_dN + [ tauS_dN * z_c5_dN ] <= 90.2925
  SyncA_c5_c2_c1: 3.0 o_5 + 100.0 x_c5_c2 - tauD_c2 - 9.7075 z_c5_c1 + [ tauS_c1 * z_c5_c1 ] <= 87.365
  SyncA_c5_c2_c2: 3.0 o_5 + 100.0 x_c5_c2 - tauD_c2 - 12.635 z_c5_c2 + [ tauS_c2 * z_c5_c2 ] <= 87.365
  SyncA_c5_c2_c3: 3.0 o_5 + 100.0 x_c5_c2 - tauD_c2 - 8.8775 z_c5_c3 + [ tauS_c3 * z_c5_c3 ] <= 87.365
  SyncA_c5_c2_c4: 3.0 o_5 + 100.0 x_c5_c2 - tauD_c2 - 1.25 z_c5_c4 + [ tauS_c4 * z_c5_c4 ] <= 87.365
  SyncA_c5_c2_dN: 3.0 o_5 + 100.0 x_c5_c2 - tauD_c2 - 6.25 z_c5_dN + [ tauS_dN * z_c5_dN ] <= 87.365
  SyncA_c5_c3_c1: 3.0 o_5 + 100.0 x_c5_c3 - tauD_c3 - 9.7075 z_c5_c1 + [ tauS_c1 * z_c5_c1 ] <= 91.1225
  SyncA_c5_c3_c2: 3.0 o_5 + 100.0 x_c5_c3 - tauD_c3 - 12.635 z_c5_c2 + [ tauS_c2 * z_c5_c2 ] <= 91.1225
  SyncA_c5_c3_c3: 3.0 o_5 + 100.0 x_c5_c3 - tauD_c3 - 8.8775 z_c5_c3 + [ tauS_c3 * z_c5_c3 ] <= 91.1225
  SyncA_c5_c3_c4: 3.0 o_5 + 100.0 x_c5_c3 - tauD_c3 - 1.25 z_c5_c4 + [ tauS_c4 * z_c5_c4 ] <= 91.1225
  SyncA_c5_c3_dN: 3.0 o_5 + 100.0 x_c5_c3 - tauD_c3 - 6.25 z_c5_dN + [ tauS_dN * z_c5_dN ] <= 91.1225
  SyncA_c5_c4_c1: 3.0 o_5 + 100.0 x_c5_c4 - tauD_c4 - 9.7075 z_c5_c1 + [ tauS_c1 * z_c5_c1 ] <= 98.75
  SyncA_c5_c4_c2: 3.0 o_5 + 100.0 x_c5_c4 - tauD_c4 - 12.635 z_c5_c2 + [ tauS_c2 * z_c5_c2 ] <= 98.75
  SyncA_c5_c4_c3: 3.0 o_5 + 100.0 x_c5_c4 - tauD_c4 - 8.8775 z_c5_c3 + [ tauS_c3 * z_c5_c3 ] <= 98.75
  SyncA_c5_c4_c4: 3.0 o_5 + 100.0 x_c5_c4 - tauD_c4 - 1.25 z_c5_c4 + [ tauS_c4 * z_c5_c4 ] <= 98.75
  SyncA_c5_c4_dN: 3.0 o_5 + 100.0 x_c5_c4 - tauD_c4 - 6.25 z_c5_dN + [ tauS_dN * z_c5_dN ] <= 98.75
  SyncA_c5_dN_c1: 3.0 o_5 + 100.0 x_c5_dN - tauD_dN - 9.7075 z_c5_c1 + [ tauS_c1 * z_c5_c1 ] <= 93.75
  SyncA_c5_dN_c2: 3.0 o_5 + 100.0 x_c5_dN - tauD_dN - 12.635 z_c5_c2 + [ tauS_c2 * z_c5_c2 ] <= 93.75
  SyncA_c5_dN_c3: 3.0 o_5 + 100.0 x_c5_dN - tauD_dN - 8.8775 z_c5_c3 + [ tauS_c3 * z_c5_c3 ] <= 93.75
  SyncA_c5_dN_c4: 3.0 o_5 + 100.0 x_c5_dN - tauD_dN - 1.25 z_c5_c4 + [ tauS_c4 * z_c5_c4 ] <= 93.75
  SyncA_c5_dN_dN: 3.0 o_5 + 100.0 x_c5_dN - tauD_dN - 6.25 z_c5_dN + [ tauS_dN * z_c5_dN ] <= 93.75
  SVFirst_c1_c2: tauS_c2 - tauD_c1 + 7.0 o_1 - 100.0 z_c1_c2 >= -81.74
  SVFirst_c1_c3: tauS_c3 - tauD_c1 + 7.0 o_1 - 100.0 z_c1_c3 >= -74.7375
  SVFirst_c1_c4: tauS_c4 - tauD_c1 + 7.0 o_1 - 100.0 z_c1_c4 >= -76.53999999999999
  SVFirst_c1_c5: tauS_c5 - tauD_c1 + 7.0 o_1 - 100.0 z_c1_c5 >= -75.2925
  SVFirst_c1_dN:  tauS_dN - tauD_c1 + 7.0 o_1 - 100.0 z_c1_dN >= -81.5275
  SVFirst_c2_c1: tauS_c1 - tauD_c2 + 6.0 o_2 - 100.0 z_c2_c1 >= -82.74
  SVFirst_c2_c3: tauS_c3 - tauD_c2 + 6.0 o_2 - 100.0 z_c2_c3 >= -74.85
  SVFirst_c2_c4: tauS_c4 - tauD_c2 + 6.0 o_2 - 100.0 z_c2_c4 >= -74.595
  SVFirst_c2_c5: tauS_c5 - tauD_c2 + 6.0 o_2 - 100.0 z_c2_c5 >= -73.36500000000001
  SVFirst_c2_dN:  tauS_dN - tauD_c2 + 6.0 o_2 - 100.0 z_c2_dN >= -79.4375
  SVFirst_c3_c1: tauS_c1 - tauD_c3 + 9.0 o_3 - 100.0 z_c3_c1 >= -72.7375
  SVFirst_c3_c2: tauS_c2 - tauD_c3 + 9.0 o_3 - 100.0 z_c3_c2 >= -71.85
  SVFirst_c3_c4: tauS_c4 - tauD_c3 + 9.0 o_3 - 100.0 z_c3_c4 >= -74.485
  SVFirst_c3_c5: tauS_c5 - tauD_c3 + 9.0 o_3 - 100.0 z_c3_c5 >= -74.1225
  SVFirst_c3_dN:  tauS_dN - tauD_c3 + 9.0 o_3 - 100.0 z_c3_dN >= -74.14
  SVFirst_c4_c1: tauS_c1 - tauD_c4 + 12.0 o_4 - 100.0 z_c4_c1 >= -71.53999999999999
  SVFirst_c4_c2: tauS_c2 - tauD_c4 + 12.0 o_4 - 100.0 z_c4_c2 >= -68.595
  SVFirst_c4_c3: tauS_c3 - tauD_c4 + 12.0 o_4 - 100.0 z_c4_c3 >= -71.485
  SVFirst_c4_c5: tauS_c5 - tauD_c4 + 12.0 o_4 - 100.0 z_c4_c5 >= -78.75
  SVFirst_c4_dN:  tauS_dN - tauD_c4 + 12.0 o_4 - 100.0 z_c4_dN >= -75.0
  SVFirst_c5_c1: tauS_c1 - tauD_c5 + 3.0 o_5 - 100.0 z_c5_c1 >= -79.2925
  SVFirst_c5_c2: tauS_c2 - tauD_c5 + 3.0 o_5 - 100.0 z_c5_c2 >= -76.36500000000001
  SVFirst_c5_c3: tauS_c3 - tauD_c5 + 3.0 o_5 - 100.0 z_c5_c3 >= -80.1225
  SVFirst_c5_c4: tauS_c4 - tauD_c5 + 3.0 o_5 - 100.0 z_c5_c4 >= -87.75
  SVFirst_c5_dN:  tauS_dN - tauD_c5 + 3.0 o_5 - 100.0 z_c5_dN >= -82.75
  Precedence_Swap_c1:  p_1 - z_d0_c1 - z_c2_c1 - z_c3_c1 - z_c4_c1 - z_c5_c1 = 0
  Precedence_Swap_c2:  p_2 - z_d0_c2 - z_c1_c2 - z_c3_c2 - z_c4_c2 - z_c5_c2 = 0
  Precedence_Swap_c3:  p_3 - z_d0_c3 - z_c1_c3 - z_c2_c3 - z_c4_c3 - z_c5_c3 = 0
  Precedence_Swap_c4:  p_4 - z_d0_c4 - z_c1_c4 - z_c2_c4 - z_c3_c4 - z_c5_c4 = 0
  Precedence_Swap_c5:  p_5 - z_d0_c5 - z_c1_c5 - z_c2_c5 - z_c3_c5 - z_c4_c5 = 0
  Order_c1:  o_1 - p_1 <= 0
  Order_c2:  o_2 - p_2 <= 0
  Order_c3:  o_3 - p_3 <= 0
  Order_c4:  o_4 - p_4 <= 0
  Order_c5:  o_5 - p_5 <= 0
  WorkingTimeS_c1:  tauS_c1 <= 88.5275
  WorkingTimeS_c2:  tauS_c2 <= 85.4375
  WorkingTimeS_c3:  tauS_c3 <= 83.14
  WorkingTimeS_c4:  tauS_c4 <= 87.0
  WorkingTimeS_c5:  tauS_c5 <= 85.75
  FreightDV_c1_c2:  k_c2 - kDash_c1 - 10.0 p_1 + 10.0 x_c1_c2 + [ kDash_c1 * p_1 - kDash_c1 * o_1 + 10.0 p_1 * o_1 ] <= 10.0
  FreightDV_c1_c3:  k_c3 - kDash_c1 - 10.0 p_1 + 10.0 x_c1_c3 + [ kDash_c1 * p_1 - kDash_c1 * o_1 + 10.0 p_1 * o_1 ] <= 10.0
  FreightDV_c1_c4:  k_c4 - kDash_c1 - 10.0 p_1 + 10.0 x_c1_c4 + [ kDash_c1 * p_1 - kDash_c1 * o_1 + 10.0 p_1 * o_1 ] <= 10.0
  FreightDV_c1_c5:  k_c5 - kDash_c1 - 10.0 p_1 + 10.0 x_c1_c5 + [ kDash_c1 * p_1 - kDash_c1 * o_1 + 10.0 p_1 * o_1 ] <= 10.0
  FreightDV_c1_dN:  k_dN - kDash_c1 - 10.0 p_1 + 10.0 x_c1_dN + [ kDash_c1 * p_1 - kDash_c1 * o_1 + 10.0 p_1 * o_1 ] <= 10.0
  FreightDV_c1:  kDash_c1 - k_c1 - 10.0 o_1 + [ k_c1 * o_1 ] <= -5.0
  FreightDV_c2_c1:  k_c1 - kDash_c2 - 10.0 p_2 + 10.0 x_c2_c1 + [ kDash_c2 * p_2 - kDash_c2 * o_2 + 10.0 p_2 * o_2 ] <= 10.0
  FreightDV_c2_c3:  k_c3 - kDash_c2 - 10.0 p_2 + 10.0 x_c2_c3 + [ kDash_c2 * p_2 - kDash_c2 * o_2 + 10.0 p_2 * o_2 ] <= 10.0
  FreightDV_c2_c4:  k_c4 - kDash_c2 - 10.0 p_2 + 10.0 x_c2_c4 + [ kDash_c2 * p_2 - kDash_c2 * o_2 + 10.0 p_2 * o_2 ] <= 10.0
  FreightDV_c2_c5:  k_c5 - kDash_c2 - 10.0 p_2 + 10.0 x_c2_c5 + [ kDash_c2 * p_2 - kDash_c2 * o_2 + 10.0 p_2 * o_2 ] <= 10.0
  FreightDV_c2_dN:  k_dN - kDash_c2 - 10.0 p_2 + 10.0 x_c2_dN + [ kDash_c2 * p_2 - kDash_c2 * o_2 + 10.0 p_2 * o_2 ] <= 10.0
  FreightDV_c2:  kDash_c2 - k_c2 - 10.0 o_2 + [ k_c2 * o_2 ] <= -7.0
  FreightDV_c3_c1:  k_c1 - kDash_c3 - 10.0 p_3 + 10.0 x_c3_c1 + [ kDash_c3 * p_3 - kDash_c3 * o_3 + 10.0 p_3 * o_3 ] <= 10.0
  FreightDV_c3_c2:  k_c2 - kDash_c3 - 10.0 p_3 + 10.0 x_c3_c2 + [ kDash_c3 * p_3 - kDash_c3 * o_3 + 10.0 p_3 * o_3 ] <= 10.0
  FreightDV_c3_c4:  k_c4 - kDash_c3 - 10.0 p_3 + 10.0 x_c3_c4 + [ kDash_c3 * p_3 - kDash_c3 * o_3 + 10.0 p_3 * o_3 ] <= 10.0
  FreightDV_c3_c5:  k_c5 - kDash_c3 - 10.0 p_3 + 10.0 x_c3_c5 + [ kDash_c3 * p_3 - kDash_c3 * o_3 + 10.0 p_3 * o_3 ] <= 10.0
  FreightDV_c3_dN:  k_dN - kDash_c3 - 10.0 p_3 + 10.0 x_c3_dN + [ kDash_c3 * p_3 - kDash_c3 * o_3 + 10.0 p_3 * o_3 ] <= 10.0
  FreightDV_c3:  kDash_c3 - k_c3 - 10.0 o_3 + [ k_c3 * o_3 ] <= -10.0
  FreightDV_c4_c1:  k_c1 - kDash_c4 - 10.0 p_4 + 10.0 x_c4_c1 + [ kDash_c4 * p_4 - kDash_c4 * o_4 + 10.0 p_4 * o_4 ] <= 10.0
  FreightDV_c4_c2:  k_c2 - kDash_c4 - 10.0 p_4 + 10.0 x_c4_c2 + [ kDash_c4 * p_4 - kDash_c4 * o_4 + 10.0 p_4 * o_4 ] <= 10.0
  FreightDV_c4_c3:  k_c3 - kDash_c4 - 10.0 p_4 + 10.0 x_c4_c3 + [ kDash_c4 * p_4 - kDash_c4 * o_4 + 10.0 p_4 * o_4 ] <= 10.0
  FreightDV_c4_c5:  k_c5 - kDash_c4 - 10.0 p_4 + 10.0 x_c4_c5 + [ kDash_c4 * p_4 - kDash_c4 * o_4 + 10.0 p_4 * o_4 ] <= 10.0
  FreightDV_c4_dN:  k_dN - kDash_c4 - 10.0 p_4 + 10.0 x_c4_dN + [ kDash_c4 * p_4 - kDash_c4 * o_4 + 10.0 p_4 * o_4 ] <= 10.0
  FreightDV_c4:  kDash_c4 - k_c4 - 10.0 o_4 + [ k_c4 * o_4 ] <= -5.0
  FreightDV_c5_c1:  k_c1 - kDash_c5 - 10.0 p_5 + 10.0 x_c5_c1 + [ kDash_c5 * p_5 - kDash_c5 * o_5 + 10.0 p_5 * o_5 ] <= 10.0
  FreightDV_c5_c2:  k_c2 - kDash_c5 - 10.0 p_5 + 10.0 x_c5_c2 + [ kDash_c5 * p_5 - kDash_c5 * o_5 + 10.0 p_5 * o_5 ] <= 10.0
  FreightDV_c5_c3:  k_c3 - kDash_c5 - 10.0 p_5 + 10.0 x_c5_c3 + [ kDash_c5 * p_5 - kDash_c5 * o_5 + 10.0 p_5 * o_5 ] <= 10.0
  FreightDV_c5_c4:  k_c4 - kDash_c5 - 10.0 p_5 + 10.0 x_c5_c4 + [ kDash_c5 * p_5 - kDash_c5 * o_5 + 10.0 p_5 * o_5 ] <= 10.0
  FreightDV_c5_dN:  k_dN - kDash_c5 - 10.0 p_5 + 10.0 x_c5_dN + [ kDash_c5 * p_5 - kDash_c5 * o_5 + 10.0 p_5 * o_5 ] <= 10.0
  FreightDV_c5:  kDash_c5 - k_c5 - 10.0 o_5 + [ k_c5 * o_5 ] <= -5.0
  FreightSV_c1_c2:  pi_c2 - pi_c1 - kDash_c1 + 20.0 z_c1_c2 + [ kDash_c1 * o_1 - k_c1 * o_1 ] <= 10.0
  FreightSV_c1_c3:  pi_c3 - pi_c1 - kDash_c1 + 20.0 z_c1_c3 + [ kDash_c1 * o_1 - k_c1 * o_1 ] <= 10.0
  FreightSV_c1_c4:  pi_c4 - pi_c1 - kDash_c1 + 20.0 z_c1_c4 + [ kDash_c1 * o_1 - k_c1 * o_1 ] <= 10.0
  FreightSV_c1_c5:  pi_c5 - pi_c1 - kDash_c1 + 20.0 z_c1_c5 + [ kDash_c1 * o_1 - k_c1 * o_1 ] <= 10.0
  FreightSV_c1_dN:  pi_dN - pi_c1 - kDash_c1 + 20.0 z_c1_dN + [ kDash_c1 * o_1 - k_c1 * o_1 ] <= 10.0
  FreightSV_c2_c1:  pi_c1 - pi_c2 - kDash_c2 + 20.0 z_c2_c1 + [ kDash_c2 * o_2 - k_c2 * o_2 ] <= 10.0
  FreightSV_c2_c3:  pi_c3 - pi_c2 - kDash_c2 + 20.0 z_c2_c3 + [ kDash_c2 * o_2 - k_c2 * o_2 ] <= 10.0
  FreightSV_c2_c4:  pi_c4 - pi_c2 - kDash_c2 + 20.0 z_c2_c4 + [ kDash_c2 * o_2 - k_c2 * o_2 ] <= 10.0
  FreightSV_c2_c5:  pi_c5 - pi_c2 - kDash_c2 + 20.0 z_c2_c5 + [ kDash_c2 * o_2 - k_c2 * o_2 ] <= 10.0
  FreightSV_c2_dN:  pi_dN - pi_c2 - kDash_c2 + 20.0 z_c2_dN + [ kDash_c2 * o_2 - k_c2 * o_2 ] <= 10.0
  FreightSV_c3_c1:  pi_c1 - pi_c3 - kDash_c3 + 20.0 z_c3_c1 + [ kDash_c3 * o_3 - k_c3 * o_3 ] <= 10.0
  FreightSV_c3_c2:  pi_c2 - pi_c3 - kDash_c3 + 20.0 z_c3_c2 + [ kDash_c3 * o_3 - k_c3 * o_3 ] <= 10.0
  FreightSV_c3_c4:  pi_c4 - pi_c3 - kDash_c3 + 20.0 z_c3_c4 + [ kDash_c3 * o_3 - k_c3 * o_3 ] <= 10.0
  FreightSV_c3_c5:  pi_c5 - pi_c3 - kDash_c3 + 20.0 z_c3_c5 + [ kDash_c3 * o_3 - k_c3 * o_3 ] <= 10.0
  FreightSV_c3_dN:  pi_dN - pi_c3 - kDash_c3 + 20.0 z_c3_dN + [ kDash_c3 * o_3 - k_c3 * o_3 ] <= 10.0
  FreightSV_c4_c1:  pi_c1 - pi_c4 - kDash_c4 + 20.0 z_c4_c1 + [ kDash_c4 * o_4 - k_c4 * o_4 ] <= 10.0
  FreightSV_c4_c2:  pi_c2 - pi_c4 - kDash_c4 + 20.0 z_c4_c2 + [ kDash_c4 * o_4 - k_c4 * o_4 ] <= 10.0
  FreightSV_c4_c3:  pi_c3 - pi_c4 - kDash_c4 + 20.0 z_c4_c3 + [ kDash_c4 * o_4 - k_c4 * o_4 ] <= 10.0
  FreightSV_c4_c5:  pi_c5 - pi_c4 - kDash_c4 + 20.0 z_c4_c5 + [ kDash_c4 * o_4 - k_c4 * o_4 ] <= 10.0
  FreightSV_c4_dN:  pi_dN - pi_c4 - kDash_c4 + 20.0 z_c4_dN + [ kDash_c4 * o_4 - k_c4 * o_4 ] <= 10.0
  FreightSV_c5_c1:  pi_c1 - pi_c5 - kDash_c5 + 20.0 z_c5_c1 + [ kDash_c5 * o_5 - k_c5 * o_5 ] <= 10.0
  FreightSV_c5_c2:  pi_c2 - pi_c5 - kDash_c5 + 20.0 z_c5_c2 + [ kDash_c5 * o_5 - k_c5 * o_5 ] <= 10.0
  FreightSV_c5_c3:  pi_c3 - pi_c5 - kDash_c5 + 20.0 z_c5_c3 + [ kDash_c5 * o_5 - k_c5 * o_5 ] <= 10.0
  FreightSV_c5_c4:  pi_c4 - pi_c5 - kDash_c5 + 20.0 z_c5_c4 + [ kDash_c5 * o_5 - k_c5 * o_5 ] <= 10.0
  FreightSV_c5_dN:  pi_dN - pi_c5 - kDash_c5 + 20.0 z_c5_dN + [ kDash_c5 * o_5 - k_c5 * o_5 ] <= 10.0
  FuelDV_d0_c1:  phi_c1 - phi_d0 + 12.9292 x_d0_c1 <= 12.0
  FuelDV_d0_c2:  phi_c2 - phi_d0 + 13.7561 x_d0_c2 <= 12.0
  FuelDV_d0_c3:  phi_c3 - phi_d0 + 14.370899999999999 x_d0_c3 <= 12.0
  FuelDV_d0_c4:  phi_c4 - phi_d0 + 13.338000000000001 x_d0_c4 <= 12.0
  FuelDV_d0_c5:  phi_c5 - phi_d0 + 13.6725 x_d0_c5 <= 12.0
  FuelDV_c1_c2:  phi_c2 - phi_c1 + 12.8724 x_c1_c2 <= 12.0
  FuelDV_c1_c3:  phi_c3 - phi_c1 + 14.7462 x_c1_c3 <= 12.0
  FuelDV_c1_c4:  phi_c4 - phi_c1 + 14.2639 x_c1_c4 <= 12.0
  FuelDV_c1_c5:  phi_c5 - phi_c1 + 14.5977 x_c1_c5 <= 12.0
  FuelDV_c1_dN:  phi_dN - phi_c1 + 12.9292 x_c1_dN <= 12.0
  FuelDV_c2_c1:  phi_c1 - phi_c2 + 12.8724 x_c2_c1 <= 12.0
  FuelDV_c2_c3:  phi_c3 - phi_c2 + 14.983699999999999 x_c2_c3 <= 12.0
  FuelDV_c2_c4:  phi_c4 - phi_c2 + 15.052 x_c2_c4 <= 12.0
  FuelDV_c2_c5:  phi_c5 - phi_c2 + 15.3811 x_c2_c5 <= 12.0
  FuelDV_c2_dN:  phi_dN - phi_c2 + 13.7561 x_c2_dN <= 12.0
  FuelDV_c3_c1:  phi_c1 - phi_c3 + 14.7462 x_c3_c1 <= 12.0
  FuelDV_c3_c2:  phi_c2 - phi_c3 + 14.983699999999999 x_c3_c2 <= 12.0
  FuelDV_c3_c4:  phi_c4 - phi_c3 + 14.2786 x_c3_c4 <= 12.0
  FuelDV_c3_c5:  phi_c5 - phi_c3 + 14.3756 x_c3_c5 <= 12.0
  FuelDV_c3_dN:  phi_dN - phi_c3 + 14.370899999999999 x_c3_dN <= 12.0
  FuelDV_c4_c1:  phi_c1 - phi_c4 + 14.2639 x_c4_c1 <= 12.0
  FuelDV_c4_c2:  phi_c2 - phi_c4 + 15.052 x_c4_c2 <= 12.0
  FuelDV_c4_c3:  phi_c3 - phi_c4 + 14.2786 x_c4_c3 <= 12.0
  FuelDV_c4_c5:  phi_c5 - phi_c4 + 12.3345 x_c4_c5 <= 12.0
  FuelDV_c4_dN:  phi_dN - phi_c4 + 13.338000000000001 x_c4_dN <= 12.0
  FuelDV_c5_c1:  phi_c1 - phi_c5 + 14.5977 x_c5_c1 <= 12.0
  FuelDV_c5_c2:  phi_c2 - phi_c5 + 15.3811 x_c5_c2 <= 12.0
  FuelDV_c5_c3:  phi_c3 - phi_c5 + 14.3756 x_c5_c3 <= 12.0
  FuelDV_c5_c4:  phi_c4 - phi_c5 + 12.3345 x_c5_c4 <= 12.0
  FuelDV_c5_dN:  phi_dN - phi_c5 + 13.6725 x_c5_dN <= 12.0
  WorkingTimeD_c1:  tauD_c1 + 8.0 p_1 <= 89.5275
  WorkingTimeD_c2:  tauD_c2 + 8.0 p_2 <= 87.4375
  WorkingTimeD_c3:  tauD_c3 + 8.0 p_3 <= 82.14
  WorkingTimeD_c4:  tauD_c4 + 8.0 p_4 <= 83.0
  WorkingTimeD_c5:  tauD_c5 + 8.0 p_5 <= 90.75
Bounds
0 <= kDash_c1 <= 10.0
0 <= kDash_c2 <= 10.0
0 <= kDash_c3 <= 10.0
0 <= kDash_c4 <= 10.0
0 <= kDash_c5 <= 10.0
0 <= kDash_dN <= 10.0
0 <= k_c1 <= 10.0
0 <= k_c2 <= 10.0
0 <= k_c3 <= 10.0
0 <= k_c4 <= 10.0
0 <= k_c5 <= 10.0
0 <= k_dN <= 10.0
0 <= phi_c1 <= 12.0
0 <= phi_c2 <= 12.0
0 <= phi_c3 <= 12.0
0 <= phi_c4 <= 12.0
0 <= phi_c5 <= 12.0
0 <= phi_d0 <= 12.0
0 <= phi_dN <= 12.0
0 <= pi_c1 <= 50.0
0 <= pi_c2 <= 50.0
0 <= pi_c3 <= 50.0
0 <= pi_c4 <= 50.0
0 <= pi_c5 <= 50.0
0 <= pi_dN <= 50.0
0 <= tauD_c1 <= 100.0
0 <= tauD_c2 <= 100.0
0 <= tauD_c3 <= 100.0
0 <= tauD_c4 <= 100.0
0 <= tauD_c5 <= 100.0
0 <= tauD_d0 <= 100.0
0 <= tauD_dN <= 100.0
0 <= tauS_c1 <= 100.0
0 <= tauS_c2 <= 100.0
0 <= tauS_c3 <= 100.0
0 <= tauS_c4 <= 100.0
0 <= tauS_c5 <= 100.0
0 <= tauS_d0 <= 100.0
0 <= tauS_dN <= 100.0
Generals
  kDash_c1
  kDash_c2
  kDash_c3
  kDash_c4
  kDash_c5
  kDash_dN
  k_c1
  k_c2
  k_c3
  k_c4
  k_c5
  k_dN
  phi_c1
  phi_c2
  phi_c3
  phi_c4
  phi_c5
  phi_d0
  phi_dN
  pi_c1
  pi_c2
  pi_c3
  pi_c4
  pi_c5
  pi_dN
  tauD_c1
  tauD_c2
  tauD_c3
  tauD_c4
  tauD_c5
  tauD_d0
  tauD_dN
  tauS_c1
  tauS_c2
  tauS_c3
  tauS_c4
  tauS_c5
  tauS_d0
  tauS_dN
Binary
  o_1
  o_2
  o_3
  o_4
  o_5
  p_1
  p_2
  p_3
  p_4
  p_5
  x_c1_c2
  x_c1_c3
  x_c1_c4
  x_c1_c5
  x_c1_dN
  x_c2_c1
  x_c2_c3
  x_c2_c4
  x_c2_c5
  x_c2_dN
  x_c3_c1
  x_c3_c2
  x_c3_c4
  x_c3_c5
  x_c3_dN
  x_c4_c1
  x_c4_c2
  x_c4_c3
  x_c4_c5
  x_c4_dN
  x_c5_c1
  x_c5_c2
  x_c5_c3
  x_c5_c4
  x_c5_dN
  x_d0_c1
  x_d0_c2
  x_d0_c3
  x_d0_c4
  x_d0_c5
  z_c1_c2
  z_c1_c3
  z_c1_c4
  z_c1_c5
  z_c1_dN
  z_c2_c1
  z_c2_c3
  z_c2_c4
  z_c2_c5
  z_c2_dN
  z_c3_c1
  z_c3_c2
  z_c3_c4
  z_c3_c5
  z_c3_dN
  z_c4_c1
  z_c4_c2
  z_c4_c3
  z_c4_c5
  z_c4_dN
  z_c5_c1
  z_c5_c2
  z_c5_c3
  z_c5_c4
  z_c5_dN
  z_d0_c1
  z_d0_c2
  z_d0_c3
  z_d0_c4
  z_d0_c5
End
