VRPTWMS/instances/mip/toDelete/freight_old/5/N5-C_DV10-C_SV50_F12_3_No_1.log

Gurobi 6.0.4 (win64) logging started 06/13/15 23:06:48

Warning: unknown variable 'kDash_dN' in bounds section
Read LP format model from file C:\MT\repository\VRPTWMS\instances\mip\freight\N5-C_DV10-C_SV50_F12_3_No_1.lp
Reading time = 0.00 seconds
(null): 161 rows, 110 columns, 603 nonzeros
Optimize a model with 161 rows, 110 columns and 603 nonzeros
Model has 180 quadratic constraints
WARNING: Only barrier available for SOCP models
Coefficient statistics:
  Matrix range    [1e+00, 1e+02]
  Objective range [5e+00, 1e+03]
  Bounds range    [1e+00, 1e+02]
  RHS range       [1e+00, 1e+02]
Presolve removed 35 rows and 18 columns
Presolve time: 0.01s
Presolved: 549 rows, 316 columns, 2290 nonzeros
Variable types: 199 continuous, 117 integer (85 binary)
Found heuristic solution: objective 5241.1600000
Optimize a model with 549 rows, 316 columns and 2290 nonzeros
Coefficient statistics:
  Matrix range    [1e+00, 1e+02]
  Objective range [5e+00, 1e+03]
  Bounds range    [1e+00, 1e+02]
  RHS range       [1e+00, 1e+02]
Presolve removed 29 rows and 16 columns
Presolved: 520 rows, 302 columns, 2156 nonzeros


Root relaxation: objective 1.148150e+03, 60 iterations, 0.00 seconds

    Nodes    |    Current Node    |     Objective Bounds      |     Work
 Expl Unexpl |  Obj  Depth IntInf | Incumbent    BestBd   Gap | It/Node Time

     0     0 1148.14998    0   41 5241.16000 1148.14998  78.1%     -    0s
     0     0 1171.76667    0   44 5241.16000 1171.76667  77.6%     -    0s
H    0     0                    4201.1600000 1171.76667  72.1%     -    0s
     0     0 1186.14266    0   63 4201.16000 1186.14266  71.8%     -    0s
     0     0 1191.65758    0   60 4201.16000 1191.65758  71.6%     -    0s
     0     0 1195.09143    0   46 4201.16000 1195.09143  71.6%     -    0s
     0     0 1195.09143    0   56 4201.16000 1195.09143  71.6%     -    0s
     0     0 1195.09143    0   43 4201.16000 1195.09143  71.6%     -    0s
     0     0 1195.09143    0   45 4201.16000 1195.09143  71.6%     -    0s
     0     0 1195.09143    0   44 4201.16000 1195.09143  71.6%     -    0s
     0     2 1195.09143    0   44 4201.16000 1195.09143  71.6%     -    0s
*   13     7               8    3298.5400000 1283.61188  61.1%  34.0    0s
*   22     7              10    3281.7500000 1283.61188  60.9%  28.3    0s
H   30     7                    3272.2800000 1283.61188  60.8%  28.4    0s
H   82    19                    3241.7400000 1305.28000  59.7%  23.3    0s
*  113    23              14    3227.1900000 1305.28000  59.6%  21.6    0s
H  213    33                    3220.4100000 1384.86810  57.0%  25.2    0s
H  405     0                    3218.9600000 3218.96000  0.00%  25.5    0s

Cutting planes:
  Gomory: 2
  Cover: 38
  Implied bound: 65
  Clique: 32
  MIR: 44
  Flow cover: 2
  GUB cover: 8

Explored 410 nodes (10869 simplex iterations) in 0.27 seconds
Thread count was 2 (of 4 available processors)

Optimal solution found (tolerance 1.00e-04)
Best objective 3.218960000000e+03, best bound 3.218960000000e+03, gap 0.0%
k_c1	5.0
k_c2	7.0
k_c3	10.0
k_c4	5.0
k_c5	10.0
k_dN	-0.0
kDash_c1	0.0
kDash_c2	-0.0
kDash_c3	-0.0
kDash_c4	-0.0
kDash_c5	5.0
kDash_dN	-0.0
o_1	0.0
o_2	-0.0
o_3	-0.0
o_4	-0.0
o_5	-0.0
p_1	1.0
p_2	1.0
p_3	0.0
p_4	-0.0
p_5	-0.0
phi_c1	9.0
phi_c2	10.0
phi_c3	3.0
phi_c4	2.0000000000000053
phi_c5	10.0
phi_d0	12.0
phi_dN	-0.0
pi_c1	9.999999999999929
pi_c2	19.99999999999993
pi_c3	9.999999999999929
pi_c4	9.999999999999929
pi_c5	5.0
pi_dN	-0.0
tauD_c1	56.0
tauD_c2	37.999999999999936
tauD_c3	82.0
tauD_c4	30.0
tauD_c5	7.0
tauD_d0	-0.0
tauD_dN	100.0
tauS_c1	56.0
tauS_c2	44.0
tauS_c3	83.0
tauS_c4	87.0
tauS_c5	85.0
tauS_d0	-0.0
tauS_dN	75.0
x_c1_c3	1.0
x_c2_c1	1.0
x_c3_dN	1.0
x_c4_dN	1.0
x_c5_c4	1.0
x_d0_c2	1.0
x_d0_c5	1.0
z_c1_dN	0.9999999999999964
z_c2_c1	1.0
z_d0_c2	1.0
